RT is False
Default write of storage_offers_DA.csv just to have a file (but constraint should be inactive)
Reading model...
...model read.
creating competitive generators file...
...competitive generators recorded.
Loading data...
.. day-ahead data read.
Compiling instance...
5000
5000
5000
5000
5000
5000
5000
5000
5000
5000
5000
5000
5000
5000
5000
5000
5000
5000
5000
5000
5000
5000
5000
5000
5000
5000
5000
5000
5000
5000
5000
5000
5000
5000
5000
5000
5000
5000
5000
5000
5000
5000
5000
5000
5000
5000
5000
5000
...instance created.
Creating Offer Mitigation (model will solve as dispatch if TRUE)...
...storage offer mitigation file created
Converting model to MPEC...
...converted
NOTE: initial MIP solve with only storage competitive to get feasible solution
Solving...

Welcome to IBM(R) ILOG(R) CPLEX(R) Interactive Optimizer 12.9.0.0
  with Simplex, Mixed Integer & Barrier Optimizers
5725-A06 5725-A29 5724-Y48 5724-Y49 5724-Y54 5724-Y55 5655-Y21
Copyright IBM Corp. 1988, 2019.  All Rights Reserved.

Type 'help' for a list of available commands.
Type 'help' followed by a command name for more
information on commands.

CPLEX> Logfile 'cplex.log' closed.
Logfile 'C:\Users\llavin\Desktop\test919\logs\tmp73yf4cxl.cplex.log' open.
CPLEX> New value for parallel optimization mode: -1
CPLEX> New value for mixed integer optimality gap tolerance: 0.01
CPLEX> New value for integrality tolerance: 1e-09
CPLEX> New value for feasibility tolerance: 0.01
CPLEX> New value for deterministic time limit in ticks: 75000
CPLEX> Problem 'C:\Users\llavin\Desktop\test919\logs\tmpn3w_khuv.pyomo.lp' read.
Read time = 0.25 sec. (14.73 ticks)
CPLEX> Problem name         : C:\Users\llavin\Desktop\test919\logs\tmpn3w_khuv.pyomo.lp
Objective sense      : Maximize
Variables            :   53805  [Nneg: 1,  Box: 22000,  Free: 4464,
                                 Binary: 27340]
Objective nonzeros   :    8945
Linear constraints   :  123205  [Less: 41346,  Greater: 59096,  Equal: 22763]
  Nonzeros           :  291766
  RHS nonzeros       :   67456

Variables            : Min LB: -5000.000        Max UB: 1000000.       
Objective nonzeros   : Min   : 0.1000000        Max   : 795.1000       
Linear constraints   :
  Nonzeros           : Min   : 0.1000000        Max   : 1000000.       
  RHS nonzeros       : Min   : 0.1000000        Max   : 1000000.       
CPLEX> CPXPARAM_Parallel                                -1
CPXPARAM_Simplex_Tolerances_Feasibility          0.01
CPXPARAM_DetTimeLimit                            75000
CPXPARAM_MIP_Tolerances_MIPGap                   0.01
CPXPARAM_MIP_Tolerances_Integrality              1.0000000000000001e-09
Tried aggregator 3 times.
MIP Presolve eliminated 88875 rows and 19149 columns.
MIP Presolve added 3361 rows and 0 columns.
MIP Presolve modified 24835 coefficients.
Aggregator did 12988 substitutions.
Reduced MIP has 24703 rows, 21086 columns, and 70548 nonzeros.
Reduced MIP has 8321 binaries, 0 generals, 0 SOSs, and 0 indicators.
Presolve time = 0.30 sec. (173.50 ticks)
Probing fixed 376 vars, tightened 2747 bounds.
Probing time = 1.17 sec. (860.05 ticks)
Tried aggregator 2 times.
MIP Presolve eliminated 849 rows and 755 columns.
MIP Presolve modified 2157 coefficients.
Aggregator did 44 substitutions.
Reduced MIP has 23810 rows, 20287 columns, and 67958 nonzeros.
Reduced MIP has 7944 binaries, 0 generals, 0 SOSs, and 0 indicators.
Presolve time = 0.11 sec. (70.04 ticks)
Probing fixed 0 vars, tightened 1 bounds.
Probing time = 0.05 sec. (19.97 ticks)
Clique table members: 6333.
MIP emphasis: balance optimality and feasibility.
MIP search method: dynamic search.
Parallel mode: opportunistic, using up to 32 threads.
Root relaxation solution time = 0.42 sec. (311.09 ticks)

        Nodes                                         Cuts/
   Node  Left     Objective  IInf  Best Integer    Best Bound    ItCnt     Gap

      0     0     8007.8347  1711                   8007.8347     7399         
*     0+    0                         8003.0085     8007.8347             0.06%

Flow cuts applied:  3
Gomory fractional cuts applied:  2

Root node processing (before b&c):
  Real time             =    3.88 sec. (2831.09 ticks)
Parallel b&c, 32 threads:
  Real time             =    0.00 sec. (0.00 ticks)
  Sync time (average)   =    0.00 sec.
  Wait time (average)   =    0.00 sec.
                          ------------
Total (root+branch&cut) =    3.88 sec. (2831.09 ticks)

Solution pool: 1 solution saved.

MIP - Integer optimal, tolerance (0.01/1e-06):  Objective =  8.0030085360e+03
Current MIP best bound =  8.0078346841e+03 (gap = 4.82615, 0.06%)
Solution time =    3.89 sec.  Iterations = 7402  Nodes = 0 (1)
Deterministic time = 2831.25 ticks  (727.64 ticks/sec)

CPLEX> Incumbent solution written to file 'C:\Users\llavin\Desktop\test919\logs\tmp2twgwd4g.cplex.sol'.
CPLEX> NOTE: no warmstart specified for MIP iteration, default behavior is true
NOTE: resolving with all competitive generators using storage-only solution to warmstart
Solving...

Welcome to IBM(R) ILOG(R) CPLEX(R) Interactive Optimizer 12.9.0.0
  with Simplex, Mixed Integer & Barrier Optimizers
5725-A06 5725-A29 5724-Y48 5724-Y49 5724-Y54 5724-Y55 5655-Y21
Copyright IBM Corp. 1988, 2019.  All Rights Reserved.

Type 'help' for a list of available commands.
Type 'help' followed by a command name for more
information on commands.

CPLEX> Logfile 'cplex.log' closed.
Logfile 'C:\Users\llavin\Desktop\test919\logs\tmp85b22u2c.cplex.log' open.
CPLEX> New value for parallel optimization mode: -1
CPLEX> New value for mixed integer optimality gap tolerance: 0.01
CPLEX> New value for integrality tolerance: 1e-09
CPLEX> New value for feasibility tolerance: 0.01
CPLEX> New value for deterministic time limit in ticks: 75000
CPLEX> Problem 'C:\Users\llavin\Desktop\test919\logs\tmp02i0ctgg.pyomo.lp' read.
Read time = 0.23 sec. (14.75 ticks)
CPLEX> MIP start file 'C:\Users\llavin\Desktop\test919\logs\tmpzfmpt_fa.cplex.mst' read.
CPLEX> Problem name         : C:\Users\llavin\Desktop\test919\logs\tmp02i0ctgg.pyomo.lp
Objective sense      : Maximize
Variables            :   54525  [Nneg: 1,  Box: 22720,  Free: 4464,
                                 Binary: 27340]
Objective nonzeros   :    9641
Linear constraints   :  123205  [Less: 41346,  Greater: 59096,  Equal: 22763]
  Nonzeros           :  291766
  RHS nonzeros       :   67456

Variables            : Min LB: -5000.000        Max UB: 1000000.       
Objective nonzeros   : Min   : 0.1000000        Max   : 795.1000       
Linear constraints   :
  Nonzeros           : Min   : 0.1000000        Max   : 1000000.       
  RHS nonzeros       : Min   : 0.1000000        Max   : 1000000.       
CPLEX> CPXPARAM_Parallel                                -1
CPXPARAM_Simplex_Tolerances_Feasibility          0.01
CPXPARAM_DetTimeLimit                            75000
CPXPARAM_MIP_Tolerances_MIPGap                   0.01
CPXPARAM_MIP_Tolerances_Integrality              1.0000000000000001e-09
Warning:  No solution found from 1 MIP starts.
Retaining values of one MIP start for possible repair.
Tried aggregator 3 times.
MIP Presolve eliminated 88875 rows and 19869 columns.
MIP Presolve added 3361 rows and 0 columns.
MIP Presolve modified 24835 coefficients.
Aggregator did 12988 substitutions.
Reduced MIP has 24703 rows, 21086 columns, and 70548 nonzeros.
Reduced MIP has 8321 binaries, 0 generals, 0 SOSs, and 0 indicators.
Presolve time = 0.28 sec. (173.85 ticks)
Probing fixed 376 vars, tightened 2747 bounds.
Probing time = 1.28 sec. (860.05 ticks)
Tried aggregator 2 times.
MIP Presolve eliminated 849 rows and 755 columns.
MIP Presolve modified 2157 coefficients.
Aggregator did 44 substitutions.
Reduced MIP has 23810 rows, 20287 columns, and 67958 nonzeros.
Reduced MIP has 7944 binaries, 0 generals, 0 SOSs, and 0 indicators.
Presolve time = 0.11 sec. (70.04 ticks)
Probing fixed 0 vars, tightened 1 bounds.
Probing time = 0.05 sec. (19.97 ticks)
Clique table members: 6333.
MIP emphasis: balance optimality and feasibility.
MIP search method: dynamic search.
Parallel mode: opportunistic, using up to 32 threads.
Root relaxation solution time = 0.38 sec. (274.88 ticks)

        Nodes                                         Cuts/
   Node  Left     Objective  IInf  Best Integer    Best Bound    ItCnt     Gap

      0     0    80052.9098  1884                  80052.9098     6675         
      0     0    79279.2187   727                   Cuts: 640     7040         
      0     0    79200.6833   597                   Cuts: 363     7244         
      0     0    79193.5197   550                   Cuts: 191     7348         
      0     0    79145.7832   518                   Cuts: 101     7415         
      0     0    79145.4344   497                    Cuts: 73     7444         
      0     0    79145.4344   498                    Cuts: 47     7467         
      0     0    79145.4344   490                    Cuts: 50     7486         
      0     0    79145.4344   482                    Cuts: 38     7505         
      0     0    79145.4344   479                    Cuts: 34     7507         
Repair heuristic found nothing.
      0    30    48073.1679   407                     Cuts: 7     7660         
Elapsed time = 11.27 sec. (6606.31 ticks, tree = 0.02 MB, solutions = 0)
    682   265    infeasible                        78783.2840    13285         
   1229   375    63685.2156   448                  78783.2840    18652         
   1917   421    68624.4053   440                  78783.2840    21471         
   2667   565  -373962.9005   407                  78783.2840    28990         
   3681   947  -378088.5292   378                  78783.2840    36644         
   4602   976  -400095.9626   356                  78783.2840    36693         
   5608  2140    54045.1876   360                  78783.2840    44818         
   6997  3213    49589.2441   352                  78783.2840    47910         
   8316  3801    56588.0351   323                  78783.2840    48930         
  12494  7717    59873.9820   346                  78783.2840    49810         
Elapsed time = 28.94 sec. (9708.59 ticks, tree = 63.94 MB, solutions = 1)
* 12580+ 6061                        56576.9954    78783.2840            39.25%
* 13967  9472      integral     0    59468.8301    78783.2840    50762   32.48%
* 14096  6275      integral     0    61267.1279    78783.2840    52017   28.59%
  14244  4854        cutoff          61267.1279    75336.1461    64030   22.96%
  15073   615    68241.3012   107    61267.1279    71936.3492    67854   17.41%
  17254  1619        cutoff          61267.1279    71936.3492    76333   17.41%
  19829  2184        cutoff          61267.1279    71246.7458    80730   16.29%
  21985  3496    62147.1360    86    61267.1279    71237.0992    93071   16.27%
  22590  4207    66849.7355   101    61267.1279    71194.5165   108677   16.20%
  23209  5458    61484.3816    80    61267.1279    70920.3797   129704   15.76%
Elapsed time = 63.73 sec. (21567.32 ticks, tree = 150.26 MB, solutions = 3)
  25868  5753    61601.7740    71    61267.1279    70149.9942   132311   14.50%
  29102  6910    65116.9633    93    61267.1279    69347.0952   144020   13.19%
  31925  9504    64069.0147    72    61267.1279    68124.6763   165711   11.19%
  34712 11935    61446.5690    79    61267.1279    68110.5607   187830   11.17%
  37638 12653    64220.6229    78    61267.1279    68056.3658   195395   11.08%
  40757 15516    61533.0550    97    61267.1279    67971.8172   233094   10.94%
  44030 17005    63897.4472   112    61267.1279    67546.9585   253302   10.25%
  46896 19451    66704.6829   122    61267.1279    67279.9582   301096    9.81%
  49534 19527    61386.7182    70    61267.1279    66849.0672   303926    9.11%
  51604 20608    61488.7072    76    61267.1279    66746.2352   346446    8.94%
Elapsed time = 113.30 sec. (31106.49 ticks, tree = 302.71 MB, solutions = 3)
  52205 21630    61523.6658    75    61267.1279    66066.7614   376872    7.83%
  53860 21980    61523.6658    69    61267.1279    65955.6508   382161    7.65%
  57446 22152    61797.8041    83    61267.1279    65646.2674   383538    7.15%
  60819 24291    64383.4767    99    61267.1279    65445.2491   405374    6.82%
  64346 26744        cutoff          61267.1279    65205.4722   428452    6.43%
  68228 27469    61531.7987    89    61267.1279    65130.8323   434645    6.31%
  72140 30109    61477.8644    92    61267.1279    65123.4805   454269    6.29%
  75836 34297    61608.4976    68    61267.1279    65115.9543   499792    6.28%
  79306 36069    61341.0581    82    61267.1279    65110.0620   533355    6.27%
  82541 35565    61628.4982    98    61267.1279    65083.4152   522296    6.23%
Elapsed time = 162.98 sec. (40646.16 ticks, tree = 480.91 MB, solutions = 3)
  85900 37474    61472.5372    77    61267.1279    64996.6863   587271    6.09%
  88430 37705        cutoff          61267.1279    64981.3187   593262    6.06%
  89561 40336    61326.9742    69    61267.1279    64949.8782   633259    6.01%
  90937 40747        cutoff          61267.1279    64931.8329   641139    5.98%
  93650 40715    61396.3605    66    61267.1279    64679.1106   639825    5.57%
  96836 43168        cutoff          61267.1279    64525.6427   711152    5.32%
  99889 43337        cutoff          61267.1279    64123.8227   747964    4.66%
 102414 43386        cutoff          61267.1279    64123.8227   740602    4.66%
 103360 43390        cutoff          61267.1279    64123.8227   746550    4.66%

Clique cuts applied:  6
Cover cuts applied:  11
Implied bound cuts applied:  12
Flow cuts applied:  253
Mixed integer rounding cuts applied:  38
Gomory fractional cuts applied:  85

Root node processing (before b&c):
  Real time             =    9.75 sec. (6581.51 ticks)
Parallel b&c, 32 threads:
  Real time             =  180.50 sec. (42998.82 ticks)
  Sync time (average)   =    1.33 sec.
  Wait time (average)   =    0.17 sec.
                          ------------
Total (root+branch&cut) =  190.25 sec. (49580.34 ticks)

Solution pool: 3 solutions saved.

MIP - Aborted, integer feasible:  Objective =  6.1267127904e+04
Current MIP best bound =  6.3924787983e+04 (gap = 2657.66, 4.34%)
Solution time =  190.30 sec.  Iterations = 780130  Nodes = 103422 (43552)
Deterministic time = 49580.49 ticks  (260.54 ticks/sec)

CPLEX> Incumbent solution written to file 'C:\Users\llavin\Desktop\test919\logs\tmpqul3m1a6.cplex.sol'.
  Signal handler called from  C:\Users\llavin\AppData\Local\Continuum\anaconda3\lib\subprocess.py _wait 1230
  Waiting...
